sat
(:added-eqs                       2969
 :arith-eq-adapter                198
 :arith-bound-propagations-lp     222
 :arith-branch                    6
 :arith-conflicts                 271
 :arith-cube-calls                2
 :arith-dio-calls                 2
 :arith-diseq                     472
 :arith-fixed-eqs                 302
 :arith-gcd-calls                 56
 :arith-grobner-calls             45
 :arith-grobner-conflicts         3
 :arith-hnf-calls                 2
 :arith-horner-calls              10
 :arith-horner-cross-nested-forms 692
 :arith-lower                     1330
 :arith-make-feasible             1311
 :arith-max-columns               601
 :arith-max-rows                  185
 :arith-nla-add-bounds            15
 :arith-nla-lemmas                98
 :arith-nla-propagate-bounds      142
 :arith-nla-propagate-eq          1346
 :arith-nra-calls                 30
 :arith-offset-eqs                47
 :arith-patches                   56
 :arith-patches-success           50
 :arith-upper                     1700
 :binary-propagations             7322
 :conflicts                       66
 :decisions                       15824
 :del-clause                      146
 :elim-unconstrained              94
 :final-checks                    167
 :max-memory                      24.33
 :memory                          19.13
 :minimized-lits                  70
 :mk-bool-var                     1468
 :mk-clause                       419
 :mk-clause-binary                6775
 :nlsat-conflicts                 2508
 :nlsat-decisions                 127
 :nlsat-propagations              77154
 :nlsat-stages                    39809
 :num-allocs                      84970884
 :num-checks                      1
 :propagations                    9054
 :rlimit-count                    1149865
 :time                            0.72
 :total-time                      0.76)
